local_stuff/sygus_stuff/sygus_inv_oai/sygus_cvc5/cvc_output_2_5min/87.c.out
STDOUT:
(
(define-fun inv-f ((lock Int) (x Int) (y Int) (tmp Int) (lock_0 Int) (lock_1 Int) (lock_2 Int) (lock_3 Int) (lock_4 Int) (lock_5 Int) (x_0 Int) (x_1 Int) (x_2 Int) (x_3 Int) (x_4 Int) (x_5 Int) (y_0 Int) (y_1 Int) (y_2 Int) (y_3 Int)) Bool (or (not (= lock lock_2)) (not (= x x_2)) (not (= y y_1)) (not (= x_2 y_1)) (= lock_2 1)))
)
